output_file = "12-1-C-80-1.60-123.csv";

n_days = 80;
n_shelf_types = 2;
n_crops = 1;

num_shelves = [
    8, 4
];


crop_shelf_type_compatible = [
    [1, 1]
];

crop_growth_days = [15];

n_configurations = 2;

crop_growth_day_config = [
    [1, 1, 1, 2, 2, 2, 2, 2, 2, 2, 2, 2, 2, 2, 2]
];

capacity = [
    [12, 12],
[12, 12]
];

demand = [
    [0, 0, 0, 0, 0, 0, 0, 0, 0, 0, 0, 0, 0, 0, 0, 0, 0, 0, 17, 16, 0, 0, 0, 8, 0, 0, 0, 0, 12, 0, 0, 0, 0, 20, 6, 12, 4, 0, 0, 0, 22, 8, 0, 6, 6, 0, 0, 17, 0, 0, 0, 0, 12, 24, 0, 8, 0, 0, 0, 0, 32, 0, 9, 0, 0, 16, 24, 0, 8, 0, 0, 0, 0, 0, 0, 0, 0, 0, 0, 0]
];
